(set-logic QF_S)
(declare-fun var_0xINPUT_157142 () String)
(assert (and (= (len var_0xINPUT_157142) 0) (= (len var_0xINPUT_157142) 0) (not (= var_0xINPUT_157142 "Example:")) (not (= var_0xINPUT_157142 "EMy6QEb2YT"))))
(check-sat var_0xINPUT_157142)